BAYES
256
2 2 2 2 2 2 2 2 2 2 2 2 2 2 2 2 2 2 2 2 2 2 2 2 2 2 2 2 2 2 2 2 2 2 2 2 2 2 2 2 2 2 2 2 2 2 2 2 2 2 2 2 2 2 2 2 2 2 2 2 2 2 2 2 2 2 2 2 2 2 2 2 2 2 2 2 2 2 2 2 2 2 2 2 2 2 2 2 2 2 2 2 2 2 2 2 2 2 2 2 2 2 2 2 2 2 2 2 2 2 2 2 2 2 2 2 2 2 2 2 2 2 2 2 2 2 2 2 2 2 2 2 2 2 2 2 2 2 2 2 2 2 2 2 2 2 2 2 2 2 2 2 2 2 2 2 2 2 2 2 2 2 2 2 2 2 2 2 2 2 2 2 2 2 2 2 2 2 2 2 2 2 2 2 2 2 2 2 2 2 2 2 2 2 2 2 2 2 2 2 2 2 2 2 2 2 2 2 2 2 2 2 2 2 2 2 2 2 2 2 2 2 2 2 2 2 2 2 2 2 2 2 2 2 2 2 2 2 2 2 2 2 2 2 2 2 2 2 2 2 2 2 2 2 2 2
256
3 16 1 0
3 17 2 1
3 18 3 2
3 19 4 3
3 20 5 4
3 21 6 5
3 22 7 6
3 23 8 7
3 24 9 8
3 25 10 9
3 26 11 10
3 27 12 11
3 28 13 12
3 29 14 13
3 30 15 14
2 31 15
3 32 17 16
3 33 18 17
3 34 19 18
3 35 20 19
3 36 21 20
3 37 22 21
3 38 23 22
3 39 24 23
3 40 25 24
3 41 26 25
3 42 27 26
3 43 28 27
3 44 29 28
3 45 30 29
3 46 31 30
2 47 31
3 48 33 32
3 49 34 33
3 50 35 34
3 51 36 35
3 52 37 36
3 53 38 37
3 54 39 38
3 55 40 39
3 56 41 40
3 57 42 41
3 58 43 42
3 59 44 43
3 60 45 44
3 61 46 45
3 62 47 46
2 63 47
3 64 49 48
3 65 50 49
3 66 51 50
3 67 52 51
3 68 53 52
3 69 54 53
3 70 55 54
3 71 56 55
3 72 57 56
3 73 58 57
3 74 59 58
3 75 60 59
3 76 61 60
3 77 62 61
3 78 63 62
2 79 63
3 80 65 64
3 81 66 65
3 82 67 66
3 83 68 67
3 84 69 68
3 85 70 69
3 86 71 70
3 87 72 71
3 88 73 72
3 89 74 73
3 90 75 74
3 91 76 75
3 92 77 76
3 93 78 77
3 94 79 78
2 95 79
3 96 81 80
3 97 82 81
3 98 83 82
3 99 84 83
3 100 85 84
3 101 86 85
3 102 87 86
3 103 88 87
3 104 89 88
3 105 90 89
3 106 91 90
3 107 92 91
3 108 93 92
3 109 94 93
3 110 95 94
2 111 95
3 112 97 96
3 113 98 97
3 114 99 98
3 115 100 99
3 116 101 100
3 117 102 101
3 118 103 102
3 119 104 103
3 120 105 104
3 121 106 105
3 122 107 106
3 123 108 107
3 124 109 108
3 125 110 109
3 126 111 110
2 127 111
3 128 113 112
3 129 114 113
3 130 115 114
3 131 116 115
3 132 117 116
3 133 118 117
3 134 119 118
3 135 120 119
3 136 121 120
3 137 122 121
3 138 123 122
3 139 124 123
3 140 125 124
3 141 126 125
3 142 127 126
2 143 127
3 144 129 128
3 145 130 129
3 146 131 130
3 147 132 131
3 148 133 132
3 149 134 133
3 150 135 134
3 151 136 135
3 152 137 136
3 153 138 137
3 154 139 138
3 155 140 139
3 156 141 140
3 157 142 141
3 158 143 142
2 159 143
3 160 145 144
3 161 146 145
3 162 147 146
3 163 148 147
3 164 149 148
3 165 150 149
3 166 151 150
3 167 152 151
3 168 153 152
3 169 154 153
3 170 155 154
3 171 156 155
3 172 157 156
3 173 158 157
3 174 159 158
2 175 159
3 176 161 160
3 177 162 161
3 178 163 162
3 179 164 163
3 180 165 164
3 181 166 165
3 182 167 166
3 183 168 167
3 184 169 168
3 185 170 169
3 186 171 170
3 187 172 171
3 188 173 172
3 189 174 173
3 190 175 174
2 191 175
3 192 177 176
3 193 178 177
3 194 179 178
3 195 180 179
3 196 181 180
3 197 182 181
3 198 183 182
3 199 184 183
3 200 185 184
3 201 186 185
3 202 187 186
3 203 188 187
3 204 189 188
3 205 190 189
3 206 191 190
2 207 191
3 208 193 192
3 209 194 193
3 210 195 194
3 211 196 195
3 212 197 196
3 213 198 197
3 214 199 198
3 215 200 199
3 216 201 200
3 217 202 201
3 218 203 202
3 219 204 203
3 220 205 204
3 221 206 205
3 222 207 206
2 223 207
3 224 209 208
3 225 210 209
3 226 211 210
3 227 212 211
3 228 213 212
3 229 214 213
3 230 215 214
3 231 216 215
3 232 217 216
3 233 218 217
3 234 219 218
3 235 220 219
3 236 221 220
3 237 222 221
3 238 223 222
2 239 223
3 240 225 224
3 241 226 225
3 242 227 226
3 243 228 227
3 244 229 228
3 245 230 229
3 246 231 230
3 247 232 231
3 248 233 232
3 249 234 233
3 250 235 234
3 251 236 235
3 252 237 236
3 253 238 237
3 254 239 238
2 255 239
2 241 240
2 242 241
2 243 242
2 244 243
2 245 244
2 246 245
2 247 246
2 248 247
2 249 248
2 250 249
2 251 250
2 252 251
2 253 252
2 254 253
2 255 254
1  255
8
0 1 1 0 1 0 0 1
8
1 0 0 1 0 1 1 0
8
0.2290215938256907 0.7709784061743092 0.20735605685728872 0.7926439431427112 0.03296649275099587 0.9670335072490042 0.9804443321167028 0.019555667883297226
8
1 0 1 0 1 0 1 0
8
1 0 1 0 0 1 1 0
8
0 1 1 0 0 1 1 0
8
1 0 0 1 1 0 1 0
8
0.6799788693449244 0.3200211306550757 0.5767070952346067 0.4232929047653933 0.8467964008782589 0.15320359912174103 0.4290733120101197 0.5709266879898803
8
0 1 1 0 1 0 0 1
8
0 1 0 1 1 0 1 0
8
1 0 0 1 0 1 0 1
8
0 1 1 0 1 0 1 0
8
0 1 1 0 1 0 0 1
8
0 1 0 1 0 1 1 0
8
0 1 1 0 0 1 1 0
4
0 1 1 0
8
0 1 1 0 0 1 0 1
8
1 0 0 1 0 1 0 1
8
1 0 0 1 1 0 1 0
8
1 0 0 1 1 0 0 1
8
0 1 0 1 1 0 0 1
8
0 1 1 0 0 1 0 1
8
1 0 0 1 0 1 1 0
8
0 1 1 0 1 0 0 1
8
0 1 1 0 1 0 0 1
8
0 1 1 0 1 0 1 0
8
0 1 0 1 1 0 1 0
8
0 1 0 1 1 0 0 1
8
0 1 1 0 1 0 1 0
8
0 1 1 0 1 0 1 0
8
0 1 1 0 0 1 1 0
4
0 1 1 0
8
0 1 1 0 0 1 1 0
8
0 1 0 1 0 1 0 1
8
0 1 0 1 0 1 0 1
8
0 1 0 1 1 0 1 0
8
1 0 0 1 1 0 1 0
8
0 1 1 0 1 0 0 1
8
0 1 0 1 1 0 0 1
8
0 1 0 1 1 0 0 1
8
0.4986241513644462 0.5013758486355538 0.14725577707690923 0.8527442229230907 0.8837954423171204 0.1162045576828796 0.31146816006947664 0.6885318399305234
8
1 0 0 1 1 0 0 1
8
1 0 0 1 0 1 1 0
8
1 0 0 1 0 1 1 0
8
1 0 0 1 0 1 1 0
8
0.4901907744526231 0.509809225547377 0.8793035574668667 0.12069644253313323 0.6666657861907751 0.33333421380922484 0.44558382524133716 0.5544161747586629
8
0 1 0 1 1 0 1 0
4
0 1 1 0
8
0.425596589630674 0.574403410369326 0.29626933888101087 0.7037306611189892 0.3272748868433642 0.6727251131566359 0.18819274269619293 0.8118072573038071
8
1 0 1 0 1 0 0 1
8
0 1 1 0 0 1 0 1
8
1 0 1 0 1 0 1 0
8
0 1 0 1 0 1 1 0
8
1 0 1 0 1 0 0 1
8
0 1 0 1 0 1 0 1
8
1 0 0 1 1 0 1 0
8
0 1 0 1 1 0 1 0
8
0 1 0 1 0 1 0 1
8
0 1 1 0 1 0 1 0
8
0 1 1 0 1 0 0 1
8
1 0 0 1 1 0 0 1
8
0 1 1 0 0 1 1 0
8
0 1 0 1 1 0 0 1
4
1 0 1 0
8
1 0 0 1 0 1 1 0
8
0.5580093416596925 0.4419906583403074 0.13090399285630036 0.8690960071436996 0.6747267818921873 0.3252732181078128 0.3261544642929124 0.6738455357070876
8
1 0 1 0 1 0 1 0
8
0 1 0 1 0 1 0 1
8
0.6979502068210875 0.30204979317891245 0.9374348272505998 0.06256517274940024 0.3989192567404508 0.6010807432595492 0.4908365382251374 0.5091634617748626
8
1 0 1 0 1 0 1 0
8
1 0 0 1 1 0 0 1
8
0 1 1 0 0 1 0 1
8
1 0 0 1 1 0 0 1
8
1 0 0 1 0 1 0 1
8
0 1 0 1 1 0 1 0
8
1 0 1 0 1 0 1 0
8
0 1 1 0 1 0 1 0
8
1 0 0 1 0 1 1 0
8
0 1 1 0 1 0 0 1
4
1 0 1 0
8
0 1 1 0 1 0 0 1
8
1 0 1 0 0 1 1 0
8
0.160945143925788 0.8390548560742122 0.44420195620413305 0.5557980437958668 0.7447810331161211 0.2552189668838789 0.6447029971193731 0.355297002880627
8
1 0 0 1 0 1 0 1
8
0 1 0 1 1 0 0 1
8
1 0 0 1 1 0 0 1
8
1 0 0 1 0 1 0 1
8
1 0 1 0 1 0 0 1
8
1 0 0 1 0 1 0 1
8
1 0 0 1 1 0 1 0
8
1 0 1 0 0 1 0 1
8
1 0 0 1 1 0 1 0
8
1 0 0 1 0 1 0 1
8
0 1 1 0 1 0 0 1
8
1 0 0 1 1 0 0 1
4
0 1 1 0
8
0 1 1 0 0 1 1 0
8
0 1 1 0 0 1 0 1
8
0 1 0 1 1 0 1 0
8
0.21159122655699178 0.7884087734430083 0.5794691709314561 0.42053082906854383 0.3892946514471514 0.6107053485528485 0.9654777472115548 0.03452225278844527
8
1 0 1 0 0 1 0 1
8
0.9172368684521526 0.08276313154784741 0.6308531464672168 0.3691468535327832 0.574374328810326 0.42562567118967404 0.6566325256367508 0.34336747436324927
8
1 0 0 1 0 1 0 1
8
0 1 1 0 0 1 1 0
8
0 1 0 1 1 0 0 1
8
0.5718820568753681 0.42811794312463186 0.8881021503292279 0.11189784967077211 0.18555682555558273 0.8144431744444173 0.8977334906124764 0.10226650938752363
8
1 0 1 0 1 0 1 0
8
1 0 1 0 1 0 1 0
8
0 1 0 1 0 1 1 0
8
0 1 0 1 0 1 0 1
8
1 0 0 1 0 1 0 1
4
0 1 1 0
8
1 0 1 0 0 1 1 0
8
0 1 1 0 0 1 1 0
8
1 0 0 1 0 1 1 0
8
1 0 0 1 1 0 0 1
8
1 0 1 0 0 1 1 0
8
1 0 1 0 1 0 1 0
8
1 0 1 0 0 1 0 1
8
0.6334926450129124 0.3665073549870876 0.41679246934268355 0.5832075306573165 0.532645803136691 0.4673541968633089 0.44577773294140915 0.5542222670585909
8
1 0 1 0 1 0 1 0
8
1 0 1 0 0 1 0 1
8
0 1 1 0 0 1 0 1
8
0 1 1 0 0 1 1 0
8
1 0 0 1 0 1 1 0
8
1 0 0 1 1 0 0 1
8
0 1 0 1 1 0 1 0
4
1 0 1 0
8
1 0 1 0 0 1 1 0
8
0 1 0 1 1 0 0 1
8
0 1 1 0 1 0 0 1
8
1 0 1 0 1 0 1 0
8
1 0 0 1 1 0 1 0
8
1 0 1 0 0 1 1 0
8
0 1 0 1 0 1 0 1
8
0 1 0 1 1 0 0 1
8
0 1 1 0 1 0 1 0
8
1 0 0 1 0 1 1 0
8
0 1 1 0 1 0 1 0
8
0 1 0 1 0 1 0 1
8
1 0 0 1 1 0 0 1
8
1 0 1 0 0 1 0 1
8
0 1 1 0 0 1 0 1
4
1 0 1 0
8
0 1 0 1 0 1 0 1
8
1 0 1 0 1 0 0 1
8
1 0 1 0 0 1 0 1
8
0 1 1 0 1 0 0 1
8
1 0 1 0 0 1 1 0
8
1 0 1 0 1 0 1 0
8
0 1 1 0 1 0 1 0
8
1 0 0 1 0 1 1 0
8
1 0 1 0 0 1 0 1
8
1 0 0 1 0 1 1 0
8
1 0 1 0 1 0 0 1
8
0.4093083319426281 0.5906916680573719 0.34536153684550086 0.6546384631544991 0.18439327071133904 0.815606729288661 0.6590975275902093 0.34090247240979066
8
1 0 1 0 0 1 0 1
8
1 0 0 1 1 0 0 1
8
0 1 0 1 1 0 0 1
4
1 0 0 1
8
1 0 1 0 1 0 1 0
8
1 0 1 0 1 0 1 0
8
1 0 0 1 1 0 1 0
8
1 0 0 1 1 0 0 1
8
0.6460030151269963 0.35399698487300363 0.360216353399873 0.639783646600127 0.42709056709332965 0.5729094329066704 0.4742015732722315 0.5257984267277686
8
0.8756052621807836 0.1243947378192164 0.37200279667033054 0.6279972033296694 0.34561337565861966 0.6543866243413804 0.47688042926007573 0.5231195707399243
8
1 0 0 1 0 1 0 1
8
0.580850730573476 0.41914926942652386 0.5327324618808645 0.4672675381191355 0.33522685642039884 0.6647731435796012 0.03640385992317639 0.9635961400768236
8
0 1 0 1 0 1 0 1
8
0.16627419314838987 0.8337258068516101 0.8985584767919531 0.10144152320804693 0.6952704013020996 0.3047295986979004 0.7172518894490894 0.28274811055091065
8
1 0 0 1 0 1 0 1
8
1 0 0 1 0 1 0 1
8
1 0 0 1 1 0 0 1
8
0 1 1 0 1 0 0 1
8
1 0 1 0 1 0 0 1
4
1 0 0 1
8
0.6140755063132936 0.3859244936867065 0.9370553074282215 0.06294469257177844 0.9609697446444636 0.03903025535553637 0.202250211651444 0.797749788348556
8
1 0 0 1 1 0 1 0
8
1 0 1 0 0 1 1 0
8
1 0 0 1 1 0 0 1
8
1 0 0 1 0 1 1 0
8
1 0 0 1 1 0 0 1
8
1 0 1 0 1 0 0 1
8
1 0 1 0 1 0 0 1
8
1 0 0 1 1 0 0 1
8
0 1 0 1 1 0 0 1
8
0 1 0 1 1 0 0 1
8
1 0 1 0 1 0 0 1
8
1 0 1 0 1 0 0 1
8
0 1 1 0 0 1 0 1
8
1 0 0 1 1 0 0 1
4
1 0 1 0
8
0 1 0 1 0 1 1 0
8
0 1 1 0 0 1 1 0
8
0.8131681741894026 0.18683182581059757 0.6101262831540768 0.38987371684592315 0.4403012462390233 0.5596987537609768 0.5163849496291676 0.4836150503708323
8
0 1 0 1 0 1 1 0
8
0 1 1 0 0 1 0 1
8
0.08460342852338072 0.9153965714766192 0.42391327285717273 0.5760867271428273 0.4025267093092488 0.5974732906907513 0.5861031328842417 0.41389686711575824
8
1 0 0 1 1 0 0 1
8
0 1 1 0 0 1 0 1
8
0.364227813639779 0.6357721863602209 0.5208010674862491 0.479198932513751 0.4149677514049609 0.585032248595039 0.33665344526505475 0.6633465547349454
8
0 1 1 0 0 1 0 1
8
0 1 0 1 1 0 1 0
8
0 1 0 1 1 0 1 0
8
0 1 1 0 0 1 0 1
8
0 1 0 1 0 1 1 0
8
0 1 1 0 1 0 0 1
4
1 0 1 0
8
0 1 0 1 1 0 0 1
8
0.6481186417517705 0.35188135824822947 0.8352981016763158 0.1647018983236843 0.12953859266797654 0.8704614073320235 0.7111444027650625 0.2888555972349375
8
1 0 1 0 0 1 1 0
8
1 0 1 0 1 0 1 0
8
1 0 0 1 1 0 0 1
8
1 0 0 1 0 1 1 0
8
1 0 1 0 0 1 1 0
8
0 1 1 0 1 0 1 0
8
1 0 1 0 0 1 0 1
8
1 0 1 0 1 0 1 0
8
1 0 1 0 0 1 0 1
8
0 1 1 0 0 1 0 1
8
0 1 1 0 0 1 1 0
8
1 0 1 0 0 1 0 1
8
1 0 1 0 1 0 1 0
4
0 1 1 0
8
0 1 0 1 1 0 0 1
8
1 0 1 0 1 0 1 0
8
0 1 0 1 1 0 1 0
8
0.10496960311498757 0.8950303968850124 0.018246498986164053 0.981753501013836 0.7289102546713498 0.27108974532865016 0.7615106485474543 0.23848935145254568
8
0.49755749810497285 0.5024425018950273 0.44827373260086595 0.5517262673991341 0.11041302487576385 0.8895869751242361 0.20656471171736804 0.793435288282632
8
0 1 1 0 0 1 1 0
8
1 0 0 1 1 0 1 0
8
1 0 1 0 1 0 0 1
8
0 1 0 1 0 1 0 1
8
1 0 1 0 0 1 0 1
8
0 1 0 1 1 0 0 1
8
1 0 0 1 0 1 0 1
8
0 1 1 0 1 0 0 1
8
1 0 0 1 1 0 1 0
8
1 0 1 0 1 0 0 1
4
0.4165574031479469 0.5834425968520531 0.3407463012425141 0.6592536987574859
4
0 1 1 0
4
1 0 1 0
4
0 1 0 1
4
1 0 0 1
4
0 1 0 1
4
0 1 1 0
4
0.7463975540317154 0.2536024459682846 0.34788167136444037 0.6521183286355595
4
1 0 0 1
4
1 0 1 0
4
0 1 1 0
4
1 0 0 1
4
0 1 0 1
4
1 0 0 1
4
0 1 0 1
4
1 0 0 1
2
0 1
